c turning on binary mode checking
c parsing input formula with 259840 variables and 1039934 clauses
c finished parsing, read 3146950 bytes from proof file
c detected empty clause; start verification via backward checking
c 830 of 1039934 clauses in core                            
c 264 of 122898 lemmas in core using 5218 resolution steps
c 0 RAT lemmas in core; 8 redundant literals in core lemmas
s VERIFIED
c verification time: 1.194 seconds
